c nIsolatedPIs 0
c maxPI 8
p cnf 68 181
c gate 9 -5 -6 0
-5 -9 0
-6 -9 0
5 6 9 0
c gate 10 1 -3 0
1 -10 0
-3 -10 0
-1 3 10 0
c gate 11 9 -10 0
9 -11 0
-10 -11 0
-9 10 11 0
c gate 12 5 6 0
5 -12 0
6 -12 0
-5 -6 12 0
c gate 13 3 -4 0
3 -13 0
-4 -13 0
-3 4 13 0
c gate 14 -1 2 0
-1 -14 0
2 -14 0
1 -2 14 0
c gate 15 -13 -14 0
-13 -15 0
-14 -15 0
13 14 15 0
c gate 16 12 -15 0
12 -16 0
-15 -16 0
-12 15 16 0
c gate 17 -11 -16 0
-11 -17 0
-16 -17 0
11 16 17 0
c gate 18 -3 4 0
-3 -18 0
4 -18 0
3 -4 18 0
c gate 19 1 2 0
1 -19 0
2 -19 0
-1 -2 19 0
c gate 20 -18 -19 0
-18 -20 0
-19 -20 0
18 19 20 0
c gate 21 -17 -20 0
-17 -21 0
-20 -21 0
17 20 21 0
c gate 22 -3 -4 0
-3 -22 0
-4 -22 0
3 4 22 0
c gate 23 -19 -22 0
-19 -23 0
-22 -23 0
19 22 23 0
c gate 24 5 -6 0
5 -24 0
-6 -24 0
-5 6 24 0
c gate 25 1 -4 0
1 -25 0
-4 -25 0
-1 4 25 0
c gate 26 24 -25 0
24 -26 0
-25 -26 0
-24 25 26 0
c gate 27 -23 26 0
-23 -27 0
26 -27 0
23 -26 27 0
c gate 28 -21 -27 0
-21 -28 0
-27 -28 0
21 27 28 0
c gate 29 -8 -28 0
-8 -29 0
-28 -29 0
8 28 29 0
c gate 30 7 -29 0
7 -30 0
-29 -30 0
-7 29 30 0
c gate 31 9 13 0
9 -31 0
13 -31 0
-9 -13 31 0
c gate 32 3 4 0
3 -32 0
4 -32 0
-3 -4 32 0
c gate 33 -1 32 0
-1 -33 0
32 -33 0
1 -32 33 0
c gate 34 24 33 0
24 -34 0
33 -34 0
-24 -33 34 0
c gate 35 -31 -34 0
-31 -35 0
-34 -35 0
31 34 35 0
c gate 36 2 -35 0
2 -36 0
-35 -36 0
-2 35 36 0
c gate 37 1 -2 0
1 -37 0
-2 -37 0
-1 2 37 0
c gate 38 32 37 0
32 -38 0
37 -38 0
-32 -37 38 0
c gate 39 14 22 0
14 -39 0
22 -39 0
-14 -22 39 0
c gate 40 -38 -39 0
-38 -40 0
-39 -40 0
38 39 40 0
c gate 41 12 -40 0
12 -41 0
-40 -41 0
-12 40 41 0
c gate 42 -7 -8 0
-7 -42 0
-8 -42 0
7 8 42 0
c gate 43 -41 42 0
-41 -43 0
42 -43 0
41 -42 43 0
c gate 44 -36 43 0
-36 -44 0
43 -44 0
36 -43 44 0
c gate 45 13 14 0
13 -45 0
14 -45 0
-13 -14 45 0
c gate 46 -17 45 0
-17 -46 0
45 -46 0
17 -45 46 0
c gate 47 22 37 0
22 -47 0
37 -47 0
-22 -37 47 0
c gate 48 9 47 0
9 -48 0
47 -48 0
-9 -47 48 0
c gate 49 8 -48 0
8 -49 0
-48 -49 0
-8 48 49 0
c gate 50 -46 49 0
-46 -50 0
49 -50 0
46 -49 50 0
c gate 51 -44 -50 0
-44 -51 0
-50 -51 0
44 50 51 0
c gate 52 -30 51 0
-30 -52 0
51 -52 0
30 -51 52 0
c gate 53 -2 33 0
-2 -53 0
33 -53 0
2 -33 53 0
c gate 54 -47 -53 0
-47 -54 0
-53 -54 0
47 53 54 0
c gate 55 7 8 0
7 -55 0
8 -55 0
-7 -8 55 0
c gate 56 12 55 0
12 -56 0
55 -56 0
-12 -55 56 0
c gate 57 -54 56 0
-54 -57 0
56 -57 0
54 -56 57 0
c gate 58 -38 -47 0
-38 -58 0
-47 -58 0
38 47 58 0
c gate 59 24 55 0
24 -59 0
55 -59 0
-24 -55 59 0
c gate 60 -58 59 0
-58 -60 0
59 -60 0
58 -59 60 0
c gate 61 -5 6 0
-5 -61 0
6 -61 0
5 -6 61 0
c gate 62 7 -8 0
7 -62 0
-8 -62 0
-7 8 62 0
c gate 63 61 62 0
61 -63 0
62 -63 0
-61 -62 63 0
c gate 64 18 37 0
18 -64 0
37 -64 0
-18 -37 64 0
c gate 65 63 64 0
63 -65 0
64 -65 0
-63 -64 65 0
c gate 66 -60 -65 0
-60 -66 0
-65 -66 0
60 65 66 0
c gate 67 -57 66 0
-57 -67 0
66 -67 0
57 -66 67 0
c gate 68 -52 67 0
-52 -68 0
67 -68 0
52 -67 68 0
c PO
-68 0
